c File: flat175_3_0.col
c
c SOURCE: Joseph Culberson (joe@cs.ualberta.ca)
c DESCRIPTION: Quasi-random coloring problem
c              generated with flatness = 0
c                             probability = 0.041
c                             known coloring = 3
c                             random seed = 1018
c              Creation Date:  Wed Feb 24 10:54:54 1999
c Maximum degree = 8 Minimum degree = 1
c COLOR VERIFICATION: Using the permuted order
c under simple greedy yields the specified
c coloring number
c Color = 3 specified partitions = 3
c p edge 175 417
c cnf created by edge2cnf
p cnf 525 1951
-1 -2 0
-1 -3 0
-2 -3 0
1 2 3 0
-4 -5 0
-4 -6 0
-5 -6 0
4 5 6 0
-7 -8 0
-7 -9 0
-8 -9 0
7 8 9 0
-10 -11 0
-10 -12 0
-11 -12 0
10 11 12 0
-13 -14 0
-13 -15 0
-14 -15 0
13 14 15 0
-16 -17 0
-16 -18 0
-17 -18 0
16 17 18 0
-19 -20 0
-19 -21 0
-20 -21 0
19 20 21 0
-22 -23 0
-22 -24 0
-23 -24 0
22 23 24 0
-25 -26 0
-25 -27 0
-26 -27 0
25 26 27 0
-28 -29 0
-28 -30 0
-29 -30 0
28 29 30 0
-31 -32 0
-31 -33 0
-32 -33 0
31 32 33 0
-34 -35 0
-34 -36 0
-35 -36 0
34 35 36 0
-37 -38 0
-37 -39 0
-38 -39 0
37 38 39 0
-40 -41 0
-40 -42 0
-41 -42 0
40 41 42 0
-43 -44 0
-43 -45 0
-44 -45 0
43 44 45 0
-46 -47 0
-46 -48 0
-47 -48 0
46 47 48 0
-49 -50 0
-49 -51 0
-50 -51 0
49 50 51 0
-52 -53 0
-52 -54 0
-53 -54 0
52 53 54 0
-55 -56 0
-55 -57 0
-56 -57 0
55 56 57 0
-58 -59 0
-58 -60 0
-59 -60 0
58 59 60 0
-61 -62 0
-61 -63 0
-62 -63 0
61 62 63 0
-64 -65 0
-64 -66 0
-65 -66 0
64 65 66 0
-67 -68 0
-67 -69 0
-68 -69 0
67 68 69 0
-70 -71 0
-70 -72 0
-71 -72 0
70 71 72 0
-73 -74 0
-73 -75 0
-74 -75 0
73 74 75 0
-76 -77 0
-76 -78 0
-77 -78 0
76 77 78 0
-79 -80 0
-79 -81 0
-80 -81 0
79 80 81 0
-82 -83 0
-82 -84 0
-83 -84 0
82 83 84 0
-85 -86 0
-85 -87 0
-86 -87 0
85 86 87 0
-88 -89 0
-88 -90 0
-89 -90 0
88 89 90 0
-91 -92 0
-91 -93 0
-92 -93 0
91 92 93 0
-94 -95 0
-94 -96 0
-95 -96 0
94 95 96 0
-97 -98 0
-97 -99 0
-98 -99 0
97 98 99 0
-100 -101 0
-100 -102 0
-101 -102 0
100 101 102 0
-103 -104 0
-103 -105 0
-104 -105 0
103 104 105 0
-106 -107 0
-106 -108 0
-107 -108 0
106 107 108 0
-109 -110 0
-109 -111 0
-110 -111 0
109 110 111 0
-112 -113 0
-112 -114 0
-113 -114 0
112 113 114 0
-115 -116 0
-115 -117 0
-116 -117 0
115 116 117 0
-118 -119 0
-118 -120 0
-119 -120 0
118 119 120 0
-121 -122 0
-121 -123 0
-122 -123 0
121 122 123 0
-124 -125 0
-124 -126 0
-125 -126 0
124 125 126 0
-127 -128 0
-127 -129 0
-128 -129 0
127 128 129 0
-130 -131 0
-130 -132 0
-131 -132 0
130 131 132 0
-133 -134 0
-133 -135 0
-134 -135 0
133 134 135 0
-136 -137 0
-136 -138 0
-137 -138 0
136 137 138 0
-139 -140 0
-139 -141 0
-140 -141 0
139 140 141 0
-142 -143 0
-142 -144 0
-143 -144 0
142 143 144 0
-145 -146 0
-145 -147 0
-146 -147 0
145 146 147 0
-148 -149 0
-148 -150 0
-149 -150 0
148 149 150 0
-151 -152 0
-151 -153 0
-152 -153 0
151 152 153 0
-154 -155 0
-154 -156 0
-155 -156 0
154 155 156 0
-157 -158 0
-157 -159 0
-158 -159 0
157 158 159 0
-160 -161 0
-160 -162 0
-161 -162 0
160 161 162 0
-163 -164 0
-163 -165 0
-164 -165 0
163 164 165 0
-166 -167 0
-166 -168 0
-167 -168 0
166 167 168 0
-169 -170 0
-169 -171 0
-170 -171 0
169 170 171 0
-172 -173 0
-172 -174 0
-173 -174 0
172 173 174 0
-175 -176 0
-175 -177 0
-176 -177 0
175 176 177 0
-178 -179 0
-178 -180 0
-179 -180 0
178 179 180 0
-181 -182 0
-181 -183 0
-182 -183 0
181 182 183 0
-184 -185 0
-184 -186 0
-185 -186 0
184 185 186 0
-187 -188 0
-187 -189 0
-188 -189 0
187 188 189 0
-190 -191 0
-190 -192 0
-191 -192 0
190 191 192 0
-193 -194 0
-193 -195 0
-194 -195 0
193 194 195 0
-196 -197 0
-196 -198 0
-197 -198 0
196 197 198 0
-199 -200 0
-199 -201 0
-200 -201 0
199 200 201 0
-202 -203 0
-202 -204 0
-203 -204 0
202 203 204 0
-205 -206 0
-205 -207 0
-206 -207 0
205 206 207 0
-208 -209 0
-208 -210 0
-209 -210 0
208 209 210 0
-211 -212 0
-211 -213 0
-212 -213 0
211 212 213 0
-214 -215 0
-214 -216 0
-215 -216 0
214 215 216 0
-217 -218 0
-217 -219 0
-218 -219 0
217 218 219 0
-220 -221 0
-220 -222 0
-221 -222 0
220 221 222 0
-223 -224 0
-223 -225 0
-224 -225 0
223 224 225 0
-226 -227 0
-226 -228 0
-227 -228 0
226 227 228 0
-229 -230 0
-229 -231 0
-230 -231 0
229 230 231 0
-232 -233 0
-232 -234 0
-233 -234 0
232 233 234 0
-235 -236 0
-235 -237 0
-236 -237 0
235 236 237 0
-238 -239 0
-238 -240 0
-239 -240 0
238 239 240 0
-241 -242 0
-241 -243 0
-242 -243 0
241 242 243 0
-244 -245 0
-244 -246 0
-245 -246 0
244 245 246 0
-247 -248 0
-247 -249 0
-248 -249 0
247 248 249 0
-250 -251 0
-250 -252 0
-251 -252 0
250 251 252 0
-253 -254 0
-253 -255 0
-254 -255 0
253 254 255 0
-256 -257 0
-256 -258 0
-257 -258 0
256 257 258 0
-259 -260 0
-259 -261 0
-260 -261 0
259 260 261 0
-262 -263 0
-262 -264 0
-263 -264 0
262 263 264 0
-265 -266 0
-265 -267 0
-266 -267 0
265 266 267 0
-268 -269 0
-268 -270 0
-269 -270 0
268 269 270 0
-271 -272 0
-271 -273 0
-272 -273 0
271 272 273 0
-274 -275 0
-274 -276 0
-275 -276 0
274 275 276 0
-277 -278 0
-277 -279 0
-278 -279 0
277 278 279 0
-280 -281 0
-280 -282 0
-281 -282 0
280 281 282 0
-283 -284 0
-283 -285 0
-284 -285 0
283 284 285 0
-286 -287 0
-286 -288 0
-287 -288 0
286 287 288 0
-289 -290 0
-289 -291 0
-290 -291 0
289 290 291 0
-292 -293 0
-292 -294 0
-293 -294 0
292 293 294 0
-295 -296 0
-295 -297 0
-296 -297 0
295 296 297 0
-298 -299 0
-298 -300 0
-299 -300 0
298 299 300 0
-301 -302 0
-301 -303 0
-302 -303 0
301 302 303 0
-304 -305 0
-304 -306 0
-305 -306 0
304 305 306 0
-307 -308 0
-307 -309 0
-308 -309 0
307 308 309 0
-310 -311 0
-310 -312 0
-311 -312 0
310 311 312 0
-313 -314 0
-313 -315 0
-314 -315 0
313 314 315 0
-316 -317 0
-316 -318 0
-317 -318 0
316 317 318 0
-319 -320 0
-319 -321 0
-320 -321 0
319 320 321 0
-322 -323 0
-322 -324 0
-323 -324 0
322 323 324 0
-325 -326 0
-325 -327 0
-326 -327 0
325 326 327 0
-328 -329 0
-328 -330 0
-329 -330 0
328 329 330 0
-331 -332 0
-331 -333 0
-332 -333 0
331 332 333 0
-334 -335 0
-334 -336 0
-335 -336 0
334 335 336 0
-337 -338 0
-337 -339 0
-338 -339 0
337 338 339 0
-340 -341 0
-340 -342 0
-341 -342 0
340 341 342 0
-343 -344 0
-343 -345 0
-344 -345 0
343 344 345 0
-346 -347 0
-346 -348 0
-347 -348 0
346 347 348 0
-349 -350 0
-349 -351 0
-350 -351 0
349 350 351 0
-352 -353 0
-352 -354 0
-353 -354 0
352 353 354 0
-355 -356 0
-355 -357 0
-356 -357 0
355 356 357 0
-358 -359 0
-358 -360 0
-359 -360 0
358 359 360 0
-361 -362 0
-361 -363 0
-362 -363 0
361 362 363 0
-364 -365 0
-364 -366 0
-365 -366 0
364 365 366 0
-367 -368 0
-367 -369 0
-368 -369 0
367 368 369 0
-370 -371 0
-370 -372 0
-371 -372 0
370 371 372 0
-373 -374 0
-373 -375 0
-374 -375 0
373 374 375 0
-376 -377 0
-376 -378 0
-377 -378 0
376 377 378 0
-379 -380 0
-379 -381 0
-380 -381 0
379 380 381 0
-382 -383 0
-382 -384 0
-383 -384 0
382 383 384 0
-385 -386 0
-385 -387 0
-386 -387 0
385 386 387 0
-388 -389 0
-388 -390 0
-389 -390 0
388 389 390 0
-391 -392 0
-391 -393 0
-392 -393 0
391 392 393 0
-394 -395 0
-394 -396 0
-395 -396 0
394 395 396 0
-397 -398 0
-397 -399 0
-398 -399 0
397 398 399 0
-400 -401 0
-400 -402 0
-401 -402 0
400 401 402 0
-403 -404 0
-403 -405 0
-404 -405 0
403 404 405 0
-406 -407 0
-406 -408 0
-407 -408 0
406 407 408 0
-409 -410 0
-409 -411 0
-410 -411 0
409 410 411 0
-412 -413 0
-412 -414 0
-413 -414 0
412 413 414 0
-415 -416 0
-415 -417 0
-416 -417 0
415 416 417 0
-418 -419 0
-418 -420 0
-419 -420 0
418 419 420 0
-421 -422 0
-421 -423 0
-422 -423 0
421 422 423 0
-424 -425 0
-424 -426 0
-425 -426 0
424 425 426 0
-427 -428 0
-427 -429 0
-428 -429 0
427 428 429 0
-430 -431 0
-430 -432 0
-431 -432 0
430 431 432 0
-433 -434 0
-433 -435 0
-434 -435 0
433 434 435 0
-436 -437 0
-436 -438 0
-437 -438 0
436 437 438 0
-439 -440 0
-439 -441 0
-440 -441 0
439 440 441 0
-442 -443 0
-442 -444 0
-443 -444 0
442 443 444 0
-445 -446 0
-445 -447 0
-446 -447 0
445 446 447 0
-448 -449 0
-448 -450 0
-449 -450 0
448 449 450 0
-451 -452 0
-451 -453 0
-452 -453 0
451 452 453 0
-454 -455 0
-454 -456 0
-455 -456 0
454 455 456 0
-457 -458 0
-457 -459 0
-458 -459 0
457 458 459 0
-460 -461 0
-460 -462 0
-461 -462 0
460 461 462 0
-463 -464 0
-463 -465 0
-464 -465 0
463 464 465 0
-466 -467 0
-466 -468 0
-467 -468 0
466 467 468 0
-469 -470 0
-469 -471 0
-470 -471 0
469 470 471 0
-472 -473 0
-472 -474 0
-473 -474 0
472 473 474 0
-475 -476 0
-475 -477 0
-476 -477 0
475 476 477 0
-478 -479 0
-478 -480 0
-479 -480 0
478 479 480 0
-481 -482 0
-481 -483 0
-482 -483 0
481 482 483 0
-484 -485 0
-484 -486 0
-485 -486 0
484 485 486 0
-487 -488 0
-487 -489 0
-488 -489 0
487 488 489 0
-490 -491 0
-490 -492 0
-491 -492 0
490 491 492 0
-493 -494 0
-493 -495 0
-494 -495 0
493 494 495 0
-496 -497 0
-496 -498 0
-497 -498 0
496 497 498 0
-499 -500 0
-499 -501 0
-500 -501 0
499 500 501 0
-502 -503 0
-502 -504 0
-503 -504 0
502 503 504 0
-505 -506 0
-505 -507 0
-506 -507 0
505 506 507 0
-508 -509 0
-508 -510 0
-509 -510 0
508 509 510 0
-511 -512 0
-511 -513 0
-512 -513 0
511 512 513 0
-514 -515 0
-514 -516 0
-515 -516 0
514 515 516 0
-517 -518 0
-517 -519 0
-518 -519 0
517 518 519 0
-520 -521 0
-520 -522 0
-521 -522 0
520 521 522 0
-523 -524 0
-523 -525 0
-524 -525 0
523 524 525 0
-7 -1 0
-8 -2 0
-9 -3 0
-157 -1 0
-158 -2 0
-159 -3 0
-376 -1 0
-377 -2 0
-378 -3 0
-439 -1 0
-440 -2 0
-441 -3 0
-274 -4 0
-275 -5 0
-276 -6 0
-382 -4 0
-383 -5 0
-384 -6 0
-25 -7 0
-26 -8 0
-27 -9 0
-34 -7 0
-35 -8 0
-36 -9 0
-79 -7 0
-80 -8 0
-81 -9 0
-196 -7 0
-197 -8 0
-198 -9 0
-211 -7 0
-212 -8 0
-213 -9 0
-49 -10 0
-50 -11 0
-51 -12 0
-160 -10 0
-161 -11 0
-162 -12 0
-265 -10 0
-266 -11 0
-267 -12 0
-298 -10 0
-299 -11 0
-300 -12 0
-322 -10 0
-323 -11 0
-324 -12 0
-388 -10 0
-389 -11 0
-390 -12 0
-184 -13 0
-185 -14 0
-186 -15 0
-259 -13 0
-260 -14 0
-261 -15 0
-424 -13 0
-425 -14 0
-426 -15 0
-466 -13 0
-467 -14 0
-468 -15 0
-436 -16 0
-437 -17 0
-438 -18 0
-439 -16 0
-440 -17 0
-441 -18 0
-208 -19 0
-209 -20 0
-210 -21 0
-325 -19 0
-326 -20 0
-327 -21 0
-412 -19 0
-413 -20 0
-414 -21 0
-490 -19 0
-491 -20 0
-492 -21 0
-115 -22 0
-116 -23 0
-117 -24 0
-247 -22 0
-248 -23 0
-249 -24 0
-322 -22 0
-323 -23 0
-324 -24 0
-490 -22 0
-491 -23 0
-492 -24 0
-142 -25 0
-143 -26 0
-144 -27 0
-220 -25 0
-221 -26 0
-222 -27 0
-376 -25 0
-377 -26 0
-378 -27 0
-409 -25 0
-410 -26 0
-411 -27 0
-478 -25 0
-479 -26 0
-480 -27 0
-52 -28 0
-53 -29 0
-54 -30 0
-124 -28 0
-125 -29 0
-126 -30 0
-205 -28 0
-206 -29 0
-207 -30 0
-232 -28 0
-233 -29 0
-234 -30 0
-472 -28 0
-473 -29 0
-474 -30 0
-49 -31 0
-50 -32 0
-51 -33 0
-73 -31 0
-74 -32 0
-75 -33 0
-85 -31 0
-86 -32 0
-87 -33 0
-337 -31 0
-338 -32 0
-339 -33 0
-403 -31 0
-404 -32 0
-405 -33 0
-406 -31 0
-407 -32 0
-408 -33 0
-439 -31 0
-440 -32 0
-441 -33 0
-499 -31 0
-500 -32 0
-501 -33 0
-97 -34 0
-98 -35 0
-99 -36 0
-154 -34 0
-155 -35 0
-156 -36 0
-340 -34 0
-341 -35 0
-342 -36 0
-367 -34 0
-368 -35 0
-369 -36 0
-163 -37 0
-164 -38 0
-165 -39 0
-352 -37 0
-353 -38 0
-354 -39 0
-55 -40 0
-56 -41 0
-57 -42 0
-283 -40 0
-284 -41 0
-285 -42 0
-358 -40 0
-359 -41 0
-360 -42 0
-82 -43 0
-83 -44 0
-84 -45 0
-319 -43 0
-320 -44 0
-321 -45 0
-337 -43 0
-338 -44 0
-339 -45 0
-331 -46 0
-332 -47 0
-333 -48 0
-334 -46 0
-335 -47 0
-336 -48 0
-361 -46 0
-362 -47 0
-363 -48 0
-367 -46 0
-368 -47 0
-369 -48 0
-412 -46 0
-413 -47 0
-414 -48 0
-73 -49 0
-74 -50 0
-75 -51 0
-157 -49 0
-158 -50 0
-159 -51 0
-280 -49 0
-281 -50 0
-282 -51 0
-502 -49 0
-503 -50 0
-504 -51 0
-196 -52 0
-197 -53 0
-198 -54 0
-226 -52 0
-227 -53 0
-228 -54 0
-238 -52 0
-239 -53 0
-240 -54 0
-265 -52 0
-266 -53 0
-267 -54 0
-295 -52 0
-296 -53 0
-297 -54 0
-436 -52 0
-437 -53 0
-438 -54 0
-523 -52 0
-524 -53 0
-525 -54 0
-310 -55 0
-311 -56 0
-312 -57 0
-316 -55 0
-317 -56 0
-318 -57 0
-325 -55 0
-326 -56 0
-327 -57 0
-391 -55 0
-392 -56 0
-393 -57 0
-493 -55 0
-494 -56 0
-495 -57 0
-136 -58 0
-137 -59 0
-138 -60 0
-169 -58 0
-170 -59 0
-171 -60 0
-265 -58 0
-266 -59 0
-267 -60 0
-316 -58 0
-317 -59 0
-318 -60 0
-412 -58 0
-413 -59 0
-414 -60 0
-487 -58 0
-488 -59 0
-489 -60 0
-157 -61 0
-158 -62 0
-159 -63 0
-178 -61 0
-179 -62 0
-180 -63 0
-205 -61 0
-206 -62 0
-207 -63 0
-259 -61 0
-260 -62 0
-261 -63 0
-121 -64 0
-122 -65 0
-123 -66 0
-349 -64 0
-350 -65 0
-351 -66 0
-355 -64 0
-356 -65 0
-357 -66 0
-361 -64 0
-362 -65 0
-363 -66 0
-130 -67 0
-131 -68 0
-132 -69 0
-376 -67 0
-377 -68 0
-378 -69 0
-403 -67 0
-404 -68 0
-405 -69 0
-451 -67 0
-452 -68 0
-453 -69 0
-97 -70 0
-98 -71 0
-99 -72 0
-169 -70 0
-170 -71 0
-171 -72 0
-208 -70 0
-209 -71 0
-210 -72 0
-277 -70 0
-278 -71 0
-279 -72 0
-445 -70 0
-446 -71 0
-447 -72 0
-118 -73 0
-119 -74 0
-120 -75 0
-178 -73 0
-179 -74 0
-180 -75 0
-193 -73 0
-194 -74 0
-195 -75 0
-403 -73 0
-404 -74 0
-405 -75 0
-424 -73 0
-425 -74 0
-426 -75 0
-94 -76 0
-95 -77 0
-96 -78 0
-127 -76 0
-128 -77 0
-129 -78 0
-298 -76 0
-299 -77 0
-300 -78 0
-415 -76 0
-416 -77 0
-417 -78 0
-421 -76 0
-422 -77 0
-423 -78 0
-508 -76 0
-509 -77 0
-510 -78 0
-154 -79 0
-155 -80 0
-156 -81 0
-262 -79 0
-263 -80 0
-264 -81 0
-358 -79 0
-359 -80 0
-360 -81 0
-361 -79 0
-362 -80 0
-363 -81 0
-112 -82 0
-113 -83 0
-114 -84 0
-139 -82 0
-140 -83 0
-141 -84 0
-391 -82 0
-392 -83 0
-393 -84 0
-142 -85 0
-143 -86 0
-144 -87 0
-274 -85 0
-275 -86 0
-276 -87 0
-283 -85 0
-284 -86 0
-285 -87 0
-397 -85 0
-398 -86 0
-399 -87 0
-463 -85 0
-464 -86 0
-465 -87 0
-121 -88 0
-122 -89 0
-123 -90 0
-148 -88 0
-149 -89 0
-150 -90 0
-151 -88 0
-152 -89 0
-153 -90 0
-166 -88 0
-167 -89 0
-168 -90 0
-220 -88 0
-221 -89 0
-222 -90 0
-268 -88 0
-269 -89 0
-270 -90 0
-181 -91 0
-182 -92 0
-183 -93 0
-196 -91 0
-197 -92 0
-198 -93 0
-205 -91 0
-206 -92 0
-207 -93 0
-268 -91 0
-269 -92 0
-270 -93 0
-319 -91 0
-320 -92 0
-321 -93 0
-187 -94 0
-188 -95 0
-189 -96 0
-310 -94 0
-311 -95 0
-312 -96 0
-373 -94 0
-374 -95 0
-375 -96 0
-505 -94 0
-506 -95 0
-507 -96 0
-217 -97 0
-218 -98 0
-219 -99 0
-250 -97 0
-251 -98 0
-252 -99 0
-406 -97 0
-407 -98 0
-408 -99 0
-436 -97 0
-437 -98 0
-438 -99 0
-469 -97 0
-470 -98 0
-471 -99 0
-169 -100 0
-170 -101 0
-171 -102 0
-295 -100 0
-296 -101 0
-297 -102 0
-271 -103 0
-272 -104 0
-273 -105 0
-232 -106 0
-233 -107 0
-234 -108 0
-256 -106 0
-257 -107 0
-258 -108 0
-349 -106 0
-350 -107 0
-351 -108 0
-151 -109 0
-152 -110 0
-153 -111 0
-160 -109 0
-161 -110 0
-162 -111 0
-217 -109 0
-218 -110 0
-219 -111 0
-262 -109 0
-263 -110 0
-264 -111 0
-505 -109 0
-506 -110 0
-507 -111 0
-118 -112 0
-119 -113 0
-120 -114 0
-142 -112 0
-143 -113 0
-144 -114 0
-289 -112 0
-290 -113 0
-291 -114 0
-397 -112 0
-398 -113 0
-399 -114 0
-214 -115 0
-215 -116 0
-216 -117 0
-241 -115 0
-242 -116 0
-243 -117 0
-244 -115 0
-245 -116 0
-246 -117 0
-433 -115 0
-434 -116 0
-435 -117 0
-499 -115 0
-500 -116 0
-501 -117 0
-202 -118 0
-203 -119 0
-204 -120 0
-229 -118 0
-230 -119 0
-231 -120 0
-283 -118 0
-284 -119 0
-285 -120 0
-352 -118 0
-353 -119 0
-354 -120 0
-520 -118 0
-521 -119 0
-522 -120 0
-340 -121 0
-341 -122 0
-342 -123 0
-376 -121 0
-377 -122 0
-378 -123 0
-388 -121 0
-389 -122 0
-390 -123 0
-289 -124 0
-290 -125 0
-291 -126 0
-418 -124 0
-419 -125 0
-420 -126 0
-421 -124 0
-422 -125 0
-423 -126 0
-199 -127 0
-200 -128 0
-201 -129 0
-490 -127 0
-491 -128 0
-492 -129 0
-220 -130 0
-221 -131 0
-222 -132 0
-337 -130 0
-338 -131 0
-339 -132 0
-460 -130 0
-461 -131 0
-462 -132 0
-502 -130 0
-503 -131 0
-504 -132 0
-181 -133 0
-182 -134 0
-183 -135 0
-247 -133 0
-248 -134 0
-249 -135 0
-256 -133 0
-257 -134 0
-258 -135 0
-307 -133 0
-308 -134 0
-309 -135 0
-367 -133 0
-368 -134 0
-369 -135 0
-211 -136 0
-212 -137 0
-213 -138 0
-280 -136 0
-281 -137 0
-282 -138 0
-355 -136 0
-356 -137 0
-357 -138 0
-334 -139 0
-335 -140 0
-336 -141 0
-442 -139 0
-443 -140 0
-444 -141 0
-157 -142 0
-158 -143 0
-159 -144 0
-292 -142 0
-293 -143 0
-294 -144 0
-406 -142 0
-407 -143 0
-408 -144 0
-430 -142 0
-431 -143 0
-432 -144 0
-268 -145 0
-269 -146 0
-270 -147 0
-271 -145 0
-272 -146 0
-273 -147 0
-388 -145 0
-389 -146 0
-390 -147 0
-508 -145 0
-509 -146 0
-510 -147 0
-256 -148 0
-257 -149 0
-258 -150 0
-331 -148 0
-332 -149 0
-333 -150 0
-214 -151 0
-215 -152 0
-216 -153 0
-391 -151 0
-392 -152 0
-393 -153 0
-508 -151 0
-509 -152 0
-510 -153 0
-238 -154 0
-239 -155 0
-240 -156 0
-343 -154 0
-344 -155 0
-345 -156 0
-430 -154 0
-431 -155 0
-432 -156 0
-466 -154 0
-467 -155 0
-468 -156 0
-469 -154 0
-470 -155 0
-471 -156 0
-301 -157 0
-302 -158 0
-303 -159 0
-379 -157 0
-380 -158 0
-381 -159 0
-238 -160 0
-239 -161 0
-240 -162 0
-286 -160 0
-287 -161 0
-288 -162 0
-370 -160 0
-371 -161 0
-372 -162 0
-175 -163 0
-176 -164 0
-177 -165 0
-202 -163 0
-203 -164 0
-204 -165 0
-289 -163 0
-290 -164 0
-291 -165 0
-346 -163 0
-347 -164 0
-348 -165 0
-424 -163 0
-425 -164 0
-426 -165 0
-454 -163 0
-455 -164 0
-456 -165 0
-310 -166 0
-311 -167 0
-312 -168 0
-349 -166 0
-350 -167 0
-351 -168 0
-460 -166 0
-461 -167 0
-462 -168 0
-223 -169 0
-224 -170 0
-225 -171 0
-490 -169 0
-491 -170 0
-492 -171 0
-316 -172 0
-317 -173 0
-318 -174 0
-391 -172 0
-392 -173 0
-393 -174 0
-499 -172 0
-500 -173 0
-501 -174 0
-187 -175 0
-188 -176 0
-189 -177 0
-199 -175 0
-200 -176 0
-201 -177 0
-271 -175 0
-272 -176 0
-273 -177 0
-298 -175 0
-299 -176 0
-300 -177 0
-502 -175 0
-503 -176 0
-504 -177 0
-259 -178 0
-260 -179 0
-261 -180 0
-274 -178 0
-275 -179 0
-276 -180 0
-340 -178 0
-341 -179 0
-342 -180 0
-289 -181 0
-290 -182 0
-291 -183 0
-406 -181 0
-407 -182 0
-408 -183 0
-313 -184 0
-314 -185 0
-315 -186 0
-397 -184 0
-398 -185 0
-399 -186 0
-472 -184 0
-473 -185 0
-474 -186 0
-190 -187 0
-191 -188 0
-192 -189 0
-247 -187 0
-248 -188 0
-249 -189 0
-298 -187 0
-299 -188 0
-300 -189 0
-502 -187 0
-503 -188 0
-504 -189 0
-292 -190 0
-293 -191 0
-294 -192 0
-442 -190 0
-443 -191 0
-444 -192 0
-460 -193 0
-461 -194 0
-462 -195 0
-358 -196 0
-359 -197 0
-360 -198 0
-463 -196 0
-464 -197 0
-465 -198 0
-304 -199 0
-305 -200 0
-306 -201 0
-328 -199 0
-329 -200 0
-330 -201 0
-238 -202 0
-239 -203 0
-240 -204 0
-241 -202 0
-242 -203 0
-243 -204 0
-394 -202 0
-395 -203 0
-396 -204 0
-400 -202 0
-401 -203 0
-402 -204 0
-250 -205 0
-251 -206 0
-252 -207 0
-265 -205 0
-266 -206 0
-267 -207 0
-457 -205 0
-458 -206 0
-459 -207 0
-460 -205 0
-461 -206 0
-462 -207 0
-481 -205 0
-482 -206 0
-483 -207 0
-241 -208 0
-242 -209 0
-243 -210 0
-448 -208 0
-449 -209 0
-450 -210 0
-286 -211 0
-287 -212 0
-288 -213 0
-337 -211 0
-338 -212 0
-339 -213 0
-385 -211 0
-386 -212 0
-387 -213 0
-505 -211 0
-506 -212 0
-507 -213 0
-520 -211 0
-521 -212 0
-522 -213 0
-229 -214 0
-230 -215 0
-231 -216 0
-250 -214 0
-251 -215 0
-252 -216 0
-361 -214 0
-362 -215 0
-363 -216 0
-472 -214 0
-473 -215 0
-474 -216 0
-244 -217 0
-245 -218 0
-246 -219 0
-283 -217 0
-284 -218 0
-285 -219 0
-445 -217 0
-446 -218 0
-447 -219 0
-373 -220 0
-374 -221 0
-375 -222 0
-436 -220 0
-437 -221 0
-438 -222 0
-445 -220 0
-446 -221 0
-447 -222 0
-499 -220 0
-500 -221 0
-501 -222 0
-235 -223 0
-236 -224 0
-237 -225 0
-310 -223 0
-311 -224 0
-312 -225 0
-313 -223 0
-314 -224 0
-315 -225 0
-436 -223 0
-437 -224 0
-438 -225 0
-268 -226 0
-269 -227 0
-270 -228 0
-367 -226 0
-368 -227 0
-369 -228 0
-313 -232 0
-314 -233 0
-315 -234 0
-385 -232 0
-386 -233 0
-387 -234 0
-520 -232 0
-521 -233 0
-522 -234 0
-520 -235 0
-521 -236 0
-522 -237 0
-307 -238 0
-308 -239 0
-309 -240 0
-334 -238 0
-335 -239 0
-336 -240 0
-508 -238 0
-509 -239 0
-510 -240 0
-301 -241 0
-302 -242 0
-303 -243 0
-370 -241 0
-371 -242 0
-372 -243 0
-400 -244 0
-401 -245 0
-402 -246 0
-319 -247 0
-320 -248 0
-321 -249 0
-358 -247 0
-359 -248 0
-360 -249 0
-460 -250 0
-461 -251 0
-462 -252 0
-514 -250 0
-515 -251 0
-516 -252 0
-268 -253 0
-269 -254 0
-270 -255 0
-310 -253 0
-311 -254 0
-312 -255 0
-478 -253 0
-479 -254 0
-480 -255 0
-484 -253 0
-485 -254 0
-486 -255 0
-283 -256 0
-284 -257 0
-285 -258 0
-457 -256 0
-458 -257 0
-459 -258 0
-385 -259 0
-386 -260 0
-387 -261 0
-448 -259 0
-449 -260 0
-450 -261 0
-502 -259 0
-503 -260 0
-504 -261 0
-421 -262 0
-422 -263 0
-423 -264 0
-487 -262 0
-488 -263 0
-489 -264 0
-520 -262 0
-521 -263 0
-522 -264 0
-286 -265 0
-287 -266 0
-288 -267 0
-448 -265 0
-449 -266 0
-450 -267 0
-496 -265 0
-497 -266 0
-498 -267 0
-517 -265 0
-518 -266 0
-519 -267 0
-292 -268 0
-293 -269 0
-294 -270 0
-337 -268 0
-338 -269 0
-339 -270 0
-361 -271 0
-362 -272 0
-363 -273 0
-397 -274 0
-398 -275 0
-399 -276 0
-445 -274 0
-446 -275 0
-447 -276 0
-484 -274 0
-485 -275 0
-486 -276 0
-487 -274 0
-488 -275 0
-489 -276 0
-355 -277 0
-356 -278 0
-357 -279 0
-397 -277 0
-398 -278 0
-399 -279 0
-418 -277 0
-419 -278 0
-420 -279 0
-430 -277 0
-431 -278 0
-432 -279 0
-454 -277 0
-455 -278 0
-456 -279 0
-481 -280 0
-482 -281 0
-483 -282 0
-490 -280 0
-491 -281 0
-492 -282 0
-349 -283 0
-350 -284 0
-351 -285 0
-337 -286 0
-338 -287 0
-339 -288 0
-484 -286 0
-485 -287 0
-486 -288 0
-343 -289 0
-344 -290 0
-345 -291 0
-415 -292 0
-416 -293 0
-417 -294 0
-460 -292 0
-461 -293 0
-462 -294 0
-514 -292 0
-515 -293 0
-516 -294 0
-382 -295 0
-383 -296 0
-384 -297 0
-436 -298 0
-437 -299 0
-438 -300 0
-460 -298 0
-461 -299 0
-462 -300 0
-454 -301 0
-455 -302 0
-456 -303 0
-517 -301 0
-518 -302 0
-519 -303 0
-346 -307 0
-347 -308 0
-348 -309 0
-388 -307 0
-389 -308 0
-390 -309 0
-505 -307 0
-506 -308 0
-507 -309 0
-325 -310 0
-326 -311 0
-327 -312 0
-382 -310 0
-383 -311 0
-384 -312 0
-397 -313 0
-398 -314 0
-399 -315 0
-403 -313 0
-404 -314 0
-405 -315 0
-349 -316 0
-350 -317 0
-351 -318 0
-493 -319 0
-494 -320 0
-495 -321 0
-337 -322 0
-338 -323 0
-339 -324 0
-430 -322 0
-431 -323 0
-432 -324 0
-451 -322 0
-452 -323 0
-453 -324 0
-409 -325 0
-410 -326 0
-411 -327 0
-436 -325 0
-437 -326 0
-438 -327 0
-361 -328 0
-362 -329 0
-363 -330 0
-373 -328 0
-374 -329 0
-375 -330 0
-406 -328 0
-407 -329 0
-408 -330 0
-493 -328 0
-494 -329 0
-495 -330 0
-376 -331 0
-377 -332 0
-378 -333 0
-439 -331 0
-440 -332 0
-441 -333 0
-352 -337 0
-353 -338 0
-354 -339 0
-346 -340 0
-347 -341 0
-348 -342 0
-418 -340 0
-419 -341 0
-420 -342 0
-505 -340 0
-506 -341 0
-507 -342 0
-391 -346 0
-392 -347 0
-393 -348 0
-493 -346 0
-494 -347 0
-495 -348 0
-517 -346 0
-518 -347 0
-519 -348 0
-379 -349 0
-380 -350 0
-381 -351 0
-454 -355 0
-455 -356 0
-456 -357 0
-364 -358 0
-365 -359 0
-366 -360 0
-409 -358 0
-410 -359 0
-411 -360 0
-457 -361 0
-458 -362 0
-459 -363 0
-367 -364 0
-368 -365 0
-369 -366 0
-427 -370 0
-428 -371 0
-429 -372 0
-463 -370 0
-464 -371 0
-465 -372 0
-493 -370 0
-494 -371 0
-495 -372 0
-511 -370 0
-512 -371 0
-513 -372 0
-442 -373 0
-443 -374 0
-444 -375 0
-400 -376 0
-401 -377 0
-402 -378 0
-421 -385 0
-422 -386 0
-423 -387 0
-409 -388 0
-410 -389 0
-411 -390 0
-499 -388 0
-500 -389 0
-501 -390 0
-394 -391 0
-395 -392 0
-396 -393 0
-469 -391 0
-470 -392 0
-471 -393 0
-427 -394 0
-428 -395 0
-429 -396 0
-463 -403 0
-464 -404 0
-465 -405 0
-496 -403 0
-497 -404 0
-498 -405 0
-511 -403 0
-512 -404 0
-513 -405 0
-433 -406 0
-434 -407 0
-435 -408 0
-493 -406 0
-494 -407 0
-495 -408 0
-433 -409 0
-434 -410 0
-435 -411 0
-505 -412 0
-506 -413 0
-507 -414 0
-511 -412 0
-512 -413 0
-513 -414 0
-493 -415 0
-494 -416 0
-495 -417 0
-448 -418 0
-449 -419 0
-450 -420 0
-436 -421 0
-437 -422 0
-438 -423 0
-451 -421 0
-452 -422 0
-453 -423 0
-496 -421 0
-497 -422 0
-498 -423 0
-478 -424 0
-479 -425 0
-480 -426 0
-502 -424 0
-503 -425 0
-504 -426 0
-433 -427 0
-434 -428 0
-435 -429 0
-445 -427 0
-446 -428 0
-447 -429 0
-451 -430 0
-452 -431 0
-453 -432 0
-448 -439 0
-449 -440 0
-450 -441 0
-481 -442 0
-482 -443 0
-483 -444 0
-508 -442 0
-509 -443 0
-510 -444 0
-496 -451 0
-497 -452 0
-498 -453 0
-523 -454 0
-524 -455 0
-525 -456 0
-496 -457 0
-497 -458 0
-498 -459 0
-514 -457 0
-515 -458 0
-516 -459 0
-502 -463 0
-503 -464 0
-504 -465 0
-520 -475 0
-521 -476 0
-522 -477 0
